14 965
520 7 444 7 352 7 190 9 19 11 841 15 712 23
535 8 494 8 291 10
535 8 494 8 422 11
525 7 477 7 391 7 244 9 79 11 2 15
525 7 477 7 391 7 244 9 79 11 2 15
520 7 476 7 355 7 196 12
520 7 476 7 355 7 196 12
520 7 443 7 262 7 50 12
525 7 445 7 357 7 195 9 48 11 872 15 715 22
520 7 444 7 352 7 190 9 19 11 841 15 712 23
520 7 444 7 352 7 190 9 19 11 841 15 712 23
525 7 445 7 264 7 63 9 889 11 721 18
525 7 476 7 354 7 155 9 5 11 838 15 650 20 567 28
525 7 477 7 390 7 241 9 75 11 912 15 777 22
